proyfinal/src/viki/013/experimentInOfficeAgust.take6.output/8be2e28a-ed55-4302-bdd4-f36396377c53.als.dat
{'cnf.clauses': '118081',
 'cnf.totvars': '69608',
 'conflict literals': '5500',
 'conflicts': '388',
 'decisions': '10916',
 'memused.mb': '15.07',
 'outcome': 'UNSAT',
 'propagations': '494280',
 'restarts': '3',
 'solver.msecs': 49,
 'task.msecs': 99}
